
<<< setup


<<< generate

 ! --------------------------------------------------- CP Optimizer 22.1.1.0 --
 ! Satisfiability problem - 60 variables, 496 constraints
 ! Presolve      : 141 extractables eliminated, 47 constraints generated
 ! ParallelMode         = 1
 ! Workers              = 8
 ! Initial process time : 0.01s (0.01s extraction + 0.00s propagation)
 !  . Log search space  : 120.0 (before), 120.0 (after)
 !  . Memory usage      : 662.8 kB (before), 662.8 kB (after)
 ! Using parallel search with 8 workers.
 ! ----------------------------------------------------------------------------
 !               Branches  Non-fixed    W       Branch decision
 *                    452  0.04s        8         0  = x(1)(60)
 ! ----------------------------------------------------------------------------
 ! Search completed, 1 solution found.
 ! ----------------------------------------------------------------------------
 ! Number of branches     : 9842
 ! Number of fails        : 4449
 ! Total memory usage     : 12.6 MB (12.1 MB CP Optimizer + 0.4 MB Concert)
 ! Time spent in solve    : 0.05s (0.04s engine + 0.01s extraction)
 ! Search speed (br. / s) : 246050.0
 ! ----------------------------------------------------------------------------

<<< solve



OBJECTIVE: no objective

<<< post process


<<< done

